sat-intances/1.param.solution
language ESSENCE' 1.0
letting actionFrom be [0, 2, 0, 2, 0, 2]
letting actionTo be [2, 1, 2, 1, 2, 1]
letting actionTypes be [1, 2, 1, 2, 1, 2]
letting pointers be [[0, 1, 1, 2, 2, 3, 3;int(0..6)], 
[0, 0, 1, 1, 2, 2, 3;int(0..6)];int(0..1)]
letting statePlaces be [[-1, 1, 1, 2, 2, 3, 3;int(0..6)];int(2)]
